language Essence 1.3
letting nnodes be 40
letting nrings be 20
letting capacity be 20
letting demand be 
{{1, 5},
{1, 7},
{1, 9},
{1, 11},
{1, 12},
{1, 13},
{1, 16},
{1, 18},
{1, 22},
{1, 24},
{1, 26},
{1, 27},
{1, 28},
{1, 30},
{1, 35},
{1, 38},
{1, 40},
{2, 3},
{2, 4},
{2, 6},
{2, 9},
{2, 13},
{2, 14},
{2, 15},
{2, 17},
{2, 19},
{2, 21},
{2, 22},
{2, 23},
{2, 24},
{2, 25},
{2, 27},
{2, 28},
{2, 29},
{2, 30},
{2, 31},
{2, 32},
{2, 34},
{2, 36},
{2, 38},
{2, 39},
{2, 40},
{3, 4},
{3, 5},
{3, 7},
{3, 9},
{3, 11},
{3, 14},
{3, 17},
{3, 20},
{3, 21},
{3, 24},
{3, 25},
{3, 26},
{3, 28},
{3, 29},
{3, 34},
{3, 35},
{3, 36},
{3, 37},
{3, 38},
{3, 40},
{4, 6},
{4, 9},
{4, 14},
{4, 15},
{4, 16},
{4, 17},
{4, 18},
{4, 20},
{4, 22},
{4, 23},
{4, 26},
{4, 27},
{4, 28},
{4, 32},
{4, 34},
{4, 35},
{4, 37},
{4, 40},
{5, 7},
{5, 12},
{5, 15},
{5, 16},
{5, 19},
{5, 21},
{5, 25},
{5, 26},
{5, 27},
{5, 28},
{5, 30},
{5, 31},
{5, 33},
{5, 36},
{5, 37},
{5, 39},
{5, 40},
{6, 9},
{6, 10},
{6, 14},
{6, 15},
{6, 16},
{6, 17},
{6, 19},
{6, 20},
{6, 21},
{6, 23},
{6, 24},
{6, 25},
{6, 27},
{6, 29},
{6, 32},
{6, 33},
{6, 36},
{6, 37},
{6, 39},
{7, 8},
{7, 9},
{7, 11},
{7, 12},
{7, 15},
{7, 18},
{7, 19},
{7, 23},
{7, 25},
{7, 35},
{7, 36},
{7, 37},
{7, 38},
{8, 13},
{8, 15},
{8, 16},
{8, 17},
{8, 19},
{8, 21},
{8, 22},
{8, 23},
{8, 24},
{8, 25},
{8, 27},
{8, 28},
{8, 29},
{8, 30},
{8, 31},
{8, 34},
{8, 38},
{8, 39},
{9, 13},
{9, 15},
{9, 18},
{9, 20},
{9, 21},
{9, 22},
{9, 26},
{9, 28},
{9, 29},
{9, 30},
{9, 32},
{9, 33},
{9, 34},
{9, 35},
{10, 15},
{10, 16},
{10, 19},
{10, 20},
{10, 21},
{10, 25},
{10, 33},
{10, 34},
{10, 35},
{10, 36},
{10, 38},
{10, 39},
{10, 40},
{11, 13},
{11, 16},
{11, 17},
{11, 18},
{11, 19},
{11, 28},
{11, 30},
{11, 32},
{11, 33},
{11, 34},
{11, 35},
{11, 36},
{11, 39},
{12, 13},
{12, 18},
{12, 24},
{12, 30},
{12, 31},
{12, 32},
{12, 33},
{12, 34},
{12, 38},
{12, 39},
{12, 40},
{13, 14},
{13, 20},
{13, 21},
{13, 22},
{13, 24},
{13, 25},
{13, 30},
{13, 31},
{13, 32},
{13, 34},
{13, 36},
{13, 38},
{13, 39},
{14, 15},
{14, 16},
{14, 18},
{14, 19},
{14, 22},
{14, 23},
{14, 24},
{14, 25},
{14, 27},
{14, 29},
{14, 31},
{14, 33},
{14, 37},
{14, 38},
{15, 17},
{15, 18},
{15, 21},
{15, 22},
{15, 27},
{15, 29},
{15, 31},
{15, 32},
{15, 34},
{15, 36},
{15, 37},
{15, 39},
{16, 18},
{16, 19},
{16, 29},
{16, 30},
{16, 31},
{16, 33},
{16, 36},
{16, 37},
{16, 40},
{17, 18},
{17, 19},
{17, 20},
{17, 21},
{17, 29},
{17, 31},
{17, 33},
{17, 35},
{17, 36},
{17, 37},
{17, 40},
{18, 19},
{18, 20},
{18, 21},
{18, 22},
{18, 23},
{18, 24},
{18, 25},
{18, 29},
{18, 32},
{18, 33},
{18, 35},
{19, 22},
{19, 23},
{19, 25},
{19, 27},
{19, 31},
{19, 32},
{19, 34},
{19, 35},
{19, 36},
{19, 37},
{19, 39},
{19, 40},
{20, 21},
{20, 23},
{20, 24},
{20, 26},
{20, 27},
{20, 28},
{20, 30},
{20, 32},
{20, 34},
{20, 36},
{20, 37},
{20, 39},
{20, 40},
{21, 25},
{21, 27},
{21, 28},
{21, 29},
{21, 32},
{21, 33},
{21, 35},
{21, 37},
{21, 39},
{21, 40},
{22, 23},
{22, 24},
{22, 25},
{22, 26},
{22, 29},
{22, 31},
{22, 32},
{22, 33},
{22, 35},
{22, 38},
{23, 25},
{23, 26},
{23, 27},
{23, 28},
{23, 29},
{23, 31},
{23, 33},
{23, 34},
{23, 35},
{23, 36},
{23, 37},
{23, 39},
{23, 40},
{24, 25},
{24, 26},
{24, 30},
{24, 31},
{24, 32},
{24, 33},
{24, 36},
{24, 37},
{24, 38},
{25, 26},
{25, 27},
{25, 28},
{25, 30},
{25, 31},
{25, 32},
{25, 34},
{25, 35},
{26, 27},
{26, 30},
{26, 31},
{26, 33},
{26, 34},
{26, 36},
{26, 37},
{26, 39},
{26, 40},
{27, 28},
{27, 29},
{27, 30},
{27, 32},
{27, 33},
{27, 34},
{27, 36},
{27, 38},
{27, 40},
{28, 30},
{28, 31},
{28, 35},
{28, 36},
{28, 37},
{28, 40},
{29, 31},
{29, 32},
{29, 33},
{29, 34},
{29, 36},
{29, 37},
{29, 38},
{29, 39},
{29, 40},
{30, 37},
{30, 40},
{31, 33},
{31, 35},
{31, 38},
{31, 40},
{32, 34},
{32, 36},
{32, 37},
{32, 39},
{32, 40},
{33, 34},
{33, 35},
{33, 37},
{33, 39},
{33, 40},
{34, 35},
{34, 37},
{35, 37},
{35, 39},
{36, 37},
{36, 38},
{36, 39},
{37, 39},
{38, 39},
{38, 40}}
